100
150
98
98
96
94
94
91
89
88
88
87
87
87
86
85
85
84
84
82
81
81
80
80
79
79
78
76
75
72
72
70
69
69
68
67
66
65
64
63
58
57
54
54
53
53
53
53
50
49
47
44
44
43
43
42
42
40
38
38
37
36
34
33
33
30
30
30
29
26
25
25
23
23
20
20
19
19
16
16
15
15
15
15
13
12
12
11
10
10
9
9
7
6
6
4
4
3
2
2
1
1
